30
100
100
65.7 73.1 67.5 38.7 56.7 90.3 6.3 90.3 42.3 4.3 38.7 30.1 42.3 4.3 65.7 90.3 49.5 64.5 35.1 81.7 47.7 47.3 69.3 47.3 53.1 12.9 24.3 81.7 44.1 30.1 17.1 21.5 4.5 21.5 11.7 81.7 49.5 21.5 4.5 38.7 76.5 81.7 74.7 90.3 71.1 47.3 35.1 73.1 11.7 30.1 31.5 47.3 38.7 90.3 2.7 38.7 45.9 73.1 72.9 4.3 
